words_hard_train/7603.qaiger
aag 81 11 0 1 70
2
4
12
14
18
22
26
36
38
42
44
162
6 2 4
8 3 5
10 7 9
16 12 14
20 16 18
24 20 22
28 24 26
30 11 28
32 10 29
34 31 33
40 36 38
46 43 45
48 40 47
50 42 44
52 49 51
54 12 5
56 13 4
58 55 57
60 53 58
62 61 57
64 13 15
66 65 17
68 67 5
70 66 4
72 69 71
74 63 72
76 75 71
78 17 19
80 79 21
82 81 5
84 80 4
86 83 85
88 77 86
90 89 85
92 21 23
94 93 25
96 95 5
98 94 4
100 97 99
102 91 100
104 103 99
106 25 27
108 107 29
110 109 5
112 108 4
114 111 113
116 105 114
118 117 113
120 35 118
122 34 119
124 121 123
126 37 39
128 127 41
130 51 58
132 47 59
134 131 133
136 128 134
138 90 101
140 139 103
142 136 141
144 62 73
146 145 75
148 76 87
150 149 89
152 147 151
154 104 115
156 155 117
158 152 157
160 142 158
162 125 160
i0 2 y1[7]
i1 1 x1[7]
i2 2 y1[2]
i3 2 y1[3]
i4 2 y1[4]
i5 2 y1[5]
i6 2 y1[6]
i7 2 y1[0]
i8 1 x1[5]
i9 2 y1[1]
i10 1 x1[6]
o0 bool[0]
c
simplified
  ==
    add
      add
        132
        2 y1
      >> 5
        1 x1
    1
