words_hard_train/7603.qaiger.qdimacs
p cnf 81 211
a 2 19 22 0
e 1 3 4 5 6 7 8 9 10 11 12 13 14 15 16 17 18 20 21 23 24 25 26 27 28 29 30 31 32 33 34 35 36 37 38 39 40 41 42 43 44 45 46 47 48 49 50 51 52 53 54 55 56 57 58 59 60 61 62 63 64 65 66 67 68 69 70 71 72 73 74 75 76 77 78 79 80 81 0
-1 -2 3 0
1 -3 0
2 -3 0
1 2 4 0
-1 -4 0
-2 -4 0
3 4 5 0
-3 -5 0
-4 -5 0
-6 -7 8 0
6 -8 0
7 -8 0
-8 -9 10 0
8 -10 0
9 -10 0
-10 -11 12 0
10 -12 0
11 -12 0
-12 -13 14 0
12 -14 0
13 -14 0
5 -14 15 0
-5 -15 0
14 -15 0
-5 14 16 0
5 -16 0
-14 -16 0
15 16 17 0
-15 -17 0
-16 -17 0
-18 -19 20 0
18 -20 0
19 -20 0
21 22 23 0
-21 -23 0
-22 -23 0
-20 23 24 0
20 -24 0
-23 -24 0
-21 -22 25 0
21 -25 0
22 -25 0
24 25 26 0
-24 -26 0
-25 -26 0
-6 2 27 0
6 -27 0
-2 -27 0
6 -2 28 0
-6 -28 0
2 -28 0
27 28 29 0
-27 -29 0
-28 -29 0
26 -29 30 0
-26 -30 0
29 -30 0
30 28 31 0
-30 -31 0
-28 -31 0
6 7 32 0
-6 -32 0
-7 -32 0
32 8 33 0
-32 -33 0
-8 -33 0
33 2 34 0
-33 -34 0
-2 -34 0
-33 -2 35 0
33 -35 0
2 -35 0
34 35 36 0
-34 -36 0
-35 -36 0
31 -36 37 0
-31 -37 0
36 -37 0
37 35 38 0
-37 -38 0
-35 -38 0
8 9 39 0
-8 -39 0
-9 -39 0
39 10 40 0
-39 -40 0
-10 -40 0
40 2 41 0
-40 -41 0
-2 -41 0
-40 -2 42 0
40 -42 0
2 -42 0
41 42 43 0
-41 -43 0
-42 -43 0
38 -43 44 0
-38 -44 0
43 -44 0
44 42 45 0
-44 -45 0
-42 -45 0
10 11 46 0
-10 -46 0
-11 -46 0
46 12 47 0
-46 -47 0
-12 -47 0
47 2 48 0
-47 -48 0
-2 -48 0
-47 -2 49 0
47 -49 0
2 -49 0
48 49 50 0
-48 -50 0
-49 -50 0
45 -50 51 0
-45 -51 0
50 -51 0
51 49 52 0
-51 -52 0
-49 -52 0
12 13 53 0
-12 -53 0
-13 -53 0
53 14 54 0
-53 -54 0
-14 -54 0
54 2 55 0
-54 -55 0
-2 -55 0
-54 -2 56 0
54 -56 0
2 -56 0
55 56 57 0
-55 -57 0
-56 -57 0
52 -57 58 0
-52 -58 0
57 -58 0
58 56 59 0
-58 -59 0
-56 -59 0
17 -59 60 0
-17 -60 0
59 -60 0
-17 59 61 0
17 -61 0
-59 -61 0
60 61 62 0
-60 -62 0
-61 -62 0
18 19 63 0
-18 -63 0
-19 -63 0
63 20 64 0
-63 -64 0
-20 -64 0
25 -29 65 0
-25 -65 0
29 -65 0
23 29 66 0
-23 -66 0
-29 -66 0
65 66 67 0
-65 -67 0
-66 -67 0
-64 -67 68 0
64 -68 0
67 -68 0
-45 50 69 0
45 -69 0
-50 -69 0
69 51 70 0
-69 -70 0
-51 -70 0
-68 70 71 0
68 -71 0
-70 -71 0
-31 36 72 0
31 -72 0
-36 -72 0
72 37 73 0
-72 -73 0
-37 -73 0
-38 43 74 0
38 -74 0
-43 -74 0
74 44 75 0
-74 -75 0
-44 -75 0
73 75 76 0
-73 -76 0
-75 -76 0
-52 57 77 0
52 -77 0
-57 -77 0
77 58 78 0
-77 -78 0
-58 -78 0
-76 78 79 0
76 -79 0
-78 -79 0
-71 -79 80 0
71 -80 0
79 -80 0
62 -80 81 0
-62 -81 0
80 -81 0
81 0
